# Solution for model diffusion_srl_ilp
# Objective value = 1.8238091910573648e+00
Z_156_2_0 0
Z_156_2_1 0
Z_156_2_2 0
Z_156_2_3 0
Z_156_2_4 1
Z_156_3_0 0
Z_156_3_1 0
Z_156_3_2 0
Z_156_3_3 0
Z_156_3_4 1
Z_156_1_0 0
Z_156_1_1 0
Z_156_1_2 0
Z_156_1_3 0
Z_156_1_4 1
Z_156_0_0 0
Z_156_0_1 0
Z_156_0_2 1
Z_156_0_3 0
Z_156_0_4 0
